
Gurobi 7.0.2 (win64, Python) logging started 06/13/17 16:51:45


Gurobi 7.0.2 (win64, Python) logging started 06/14/17 14:01:53


Gurobi 7.0.2 (win64, Python) logging started 06/14/17 14:04:42


Gurobi 7.0.2 (win64, Python) logging started 06/15/17 11:24:30


Gurobi 7.0.2 (win64, Python) logging started 06/15/17 11:30:05


Gurobi 7.0.2 (win64, Python) logging started 06/15/17 11:38:33


Gurobi 7.0.2 (win64, Python) logging started 06/15/17 12:09:02


Gurobi 7.0.2 (win64, Python) logging started 06/15/17 13:39:33


Gurobi 7.0.2 (win64, Python) logging started 06/15/17 13:58:52


Gurobi 7.0.2 (win64, Python) logging started 06/16/17 13:20:08


Gurobi 7.0.2 (win64, Python) logging started 06/16/17 17:45:46


Gurobi 7.0.2 (win64, Python) logging started 06/16/17 17:48:09


Gurobi 7.0.2 (win64, Python) logging started 06/16/17 17:55:12


Gurobi 7.0.2 (win64, Python) logging started 06/16/17 17:56:18


Gurobi 7.0.2 (win64, Python) logging started 06/16/17 17:57:10


Gurobi 7.0.2 (win64, Python) logging started 06/16/17 18:07:00


Gurobi 7.0.2 (win64, Python) logging started 06/18/17 22:04:27


Gurobi 7.0.2 (win64, Python) logging started 06/18/17 22:06:52


Gurobi 7.0.2 (win64, Python) logging started 06/19/17 09:13:18


Gurobi 7.0.2 (win64, Python) logging started 06/19/17 09:25:39


Gurobi 7.0.2 (win64, Python) logging started 06/19/17 09:27:09


Gurobi 7.0.2 (win64, Python) logging started 06/19/17 09:27:47


Gurobi 7.0.2 (win64, Python) logging started 06/19/17 09:28:13


Gurobi 7.0.2 (win64, Python) logging started 06/19/17 09:29:22


Gurobi 7.0.2 (win64, Python) logging started 06/19/17 09:29:56


Gurobi 7.0.2 (win64, Python) logging started 06/19/17 09:44:58


Gurobi 7.0.2 (win64, Python) logging started 06/19/17 09:55:54


Gurobi 7.0.2 (win64, Python) logging started 06/19/17 10:08:51


Gurobi 7.0.2 (win64, Python) logging started 06/19/17 10:10:59


Gurobi 7.0.2 (win64, Python) logging started 06/19/17 10:12:54


Gurobi 7.0.2 (win64, Python) logging started 06/19/17 10:21:45


Gurobi 7.0.2 (win64, Python) logging started 06/19/17 10:25:52


Gurobi 7.0.2 (win64, Python) logging started 06/19/17 10:26:10


Gurobi 7.0.2 (win64, Python) logging started 06/19/17 10:27:54


Gurobi 7.0.2 (win64, Python) logging started 06/19/17 10:31:10


Gurobi 7.0.2 (win64, Python) logging started 06/19/17 10:33:00


Gurobi 7.0.2 (win64, Python) logging started 06/19/17 10:35:00


Gurobi 7.0.2 (win64, Python) logging started 06/19/17 10:48:08


Gurobi 7.0.2 (win64, Python) logging started 06/19/17 10:54:24


Gurobi 7.0.2 (win64, Python) logging started 06/19/17 10:57:29


Gurobi 7.0.2 (win64, Python) logging started 06/19/17 10:58:02


Gurobi 7.0.2 (win64, Python) logging started 06/19/17 10:58:23


Gurobi 7.0.2 (win64, Python) logging started 06/19/17 10:58:52


Gurobi 7.0.2 (win64, Python) logging started 06/19/17 10:59:28


Gurobi 7.0.2 (win64, Python) logging started 06/19/17 11:00:04


Gurobi 7.0.2 (win64, Python) logging started 06/19/17 11:32:27


Gurobi 7.0.2 (win64, Python) logging started 06/19/17 11:39:35


Gurobi 7.0.2 (win64, Python) logging started 06/19/17 11:44:31


Gurobi 7.0.2 (win64, Python) logging started 06/19/17 11:48:34


Gurobi 7.0.2 (win64, Python) logging started 06/19/17 12:17:41


Gurobi 7.0.2 (win64, Python) logging started 06/19/17 16:08:30


Gurobi 7.0.2 (win64, Python) logging started 06/19/17 16:44:32


Gurobi 7.0.2 (win64, Python) logging started 06/19/17 16:44:38


Gurobi 7.0.2 (win64, Python) logging started 06/19/17 16:45:54


Gurobi 7.0.2 (win64, Python) logging started 06/19/17 16:46:00

